\Problem name: Modelo Montagem de Elenco

Minimize
OBJROW: 0.60000 y(5,4) -11.90000 y(5,9) - y(5,11)
Subject To
constr(0):  y(0,0) + y(1,0) + y(2,0) + y(3,0) + y(4,0) + y(5,0) <= 1
constr(1):  y(0,1) + y(1,1) + y(2,1) + y(3,1) + y(4,1) + y(5,1) <= 1
constr(2):  y(0,2) + y(1,2) + y(2,2) + y(3,2) + y(4,2) + y(5,2) <= 1
constr(3):  y(0,3) + y(1,3) + y(2,3) + y(3,3) + y(4,3) + y(5,3) <= 1
constr(4):  y(0,4) + y(1,4) + y(2,4) + y(3,4) + y(4,4) + y(5,4) <= 1
constr(5):  y(0,5) + y(1,5) + y(2,5) + y(3,5) + y(4,5) + y(5,5) <= 1
constr(6):  y(0,6) + y(1,6) + y(2,6) + y(3,6) + y(4,6) + y(5,6) <= 1
constr(7):  y(0,7) + y(1,7) + y(2,7) + y(3,7) + y(4,7) + y(5,7) <= 1
constr(8):  y(0,8) + y(1,8) + y(2,8) + y(3,8) + y(4,8) + y(5,8) <= 1
constr(9):  y(0,9) + y(1,9) + y(2,9) + y(3,9) + y(4,9) + y(5,9) <= 1
constr(10):  y(0,10) + y(1,10) + y(2,10) + y(3,10) + y(4,10) + y(5,10) <= 1
constr(11):  y(0,11) + y(1,11) + y(2,11) + y(3,11) + y(4,11) + y(5,11) <= 1
constr(12):  y(0,12) + y(1,12) + y(2,12) + y(3,12) + y(4,12) + y(5,12) <= 1
constr(13):  y(0,13) + y(1,13) + y(2,13) + y(3,13) + y(4,13) + y(5,13) <= 1
constr(14):  y(0,14) + y(1,14) + y(2,14) + y(3,14) + y(4,14) + y(5,14) <= 1
constr(15):  y(0,15) + y(1,15) + y(2,15) + y(3,15) + y(4,15) + y(5,15) <= 1
constr(16):  y(0,16) + y(1,16) + y(2,16) + y(3,16) + y(4,16) + y(5,16) <= 1
constr(17):  y(0,17) + y(1,17) + y(2,17) + y(3,17) + y(4,17) + y(5,17) <= 1
constr(18):  y(0,18) + y(1,18) + y(2,18) + y(3,18) + y(4,18) + y(5,18) <= 1
constr(19):  y(0,19) + y(1,19) + y(2,19) + y(3,19) + y(4,19) + y(5,19) <= 1
constr(20):  y(0,0) + y(0,1) + y(0,2) + y(0,3) + y(0,4) + y(0,5) + y(0,6) + y(0,7) + y(0,8) + y(0,9)
 + y(0,10) + y(0,11) + y(0,12) + y(0,13) + y(0,14) + y(0,15) + y(0,16) + y(0,17) + y(0,18) + y(0,19)
 + y(1,0) + y(1,1) + y(1,2) + y(1,3) + y(1,4) + y(1,5) + y(1,6) + y(1,7) + y(1,8) + y(1,9)
 + y(1,10) + y(1,11) + y(1,12) + y(1,13) + y(1,14) + y(1,15) + y(1,16) + y(1,17) + y(1,18) + y(1,19)
 + y(2,0) + y(2,1) + y(2,2) + y(2,3) + y(2,4) + y(2,5) + y(2,6) + y(2,7) + y(2,8) + y(2,9)
 + y(2,10) + y(2,11) + y(2,12) + y(2,13) + y(2,14) + y(2,15) + y(2,16) + y(2,17) + y(2,18) + y(2,19)
 + y(3,0) + y(3,1) + y(3,2) + y(3,3) + y(3,4) + y(3,5) + y(3,6) + y(3,7) + y(3,8) + y(3,9)
 + y(3,10) + y(3,11) + y(3,12) + y(3,13) + y(3,14) + y(3,15) + y(3,16) + y(3,17) + y(3,18) + y(3,19)
 + y(4,0) + y(4,1) + y(4,2) + y(4,3) + y(4,4) + y(4,5) + y(4,6) + y(4,7) + y(4,8) + y(4,9)
 + y(4,10) + y(4,11) + y(4,12) + y(4,13) + y(4,14) + y(4,15) + y(4,16) + y(4,17) + y(4,18) + y(4,19)
 + y(5,0) + y(5,1) + y(5,2) + y(5,3) + y(5,4) + y(5,5) + y(5,6) + y(5,7) + y(5,8) + y(5,9)
 + y(5,10) + y(5,11) + y(5,12) + y(5,13) + y(5,14) + y(5,15) + y(5,16) + y(5,17) + y(5,18) + y(5,19)
 = 12
constr(21):  y(0,0) + y(0,1) + y(0,2) = 2
constr(22):  y(1,3) + y(1,4) + y(1,5) = 1
constr(23):  y(2,6) + y(2,7) + y(2,8) = 2
constr(24):  y(3,9) + y(3,10) + y(3,11) + y(3,12) = 3
constr(25):  y(4,13) + y(4,14) + y(4,15) = 1
constr(26):  y(5,16) + y(5,17) + y(5,18) + y(5,19) = 3
constr(27):  3 y(0,0) + 3 y(0,1) + 2 y(0,2) + 3 y(0,3) + 4.44000 y(0,4) + y(0,5) + 4 y(0,6) + 2 y(0,7) + 5 y(0,8) + 13.11000 y(0,9)
 + y(0,10) + 2.08000 y(0,11) + y(0,12) + 4 y(0,13) + 3 y(0,14) + 2 y(0,15) + 2 y(0,16) + y(0,17) + 6 y(0,18) + 2 y(0,19)
 <= 100
constr(28):  3 y(1,0) + 3 y(1,1) + 2 y(1,2) + 3 y(1,3) + 4.44000 y(1,4) + y(1,5) + 4 y(1,6) + 2 y(1,7) + 5 y(1,8) + 13.11000 y(1,9)
 + y(1,10) + 2.08000 y(1,11) + y(1,12) + 4 y(1,13) + 3 y(1,14) + 2 y(1,15) + 2 y(1,16) + y(1,17) + 6 y(1,18) + 2 y(1,19)
 <= 100
constr(29):  3 y(2,0) + 3 y(2,1) + 2 y(2,2) + 3 y(2,3) + 4.44000 y(2,4) + y(2,5) + 4 y(2,6) + 2 y(2,7) + 5 y(2,8) + 13.11000 y(2,9)
 + y(2,10) + 2.08000 y(2,11) + y(2,12) + 4 y(2,13) + 3 y(2,14) + 2 y(2,15) + 2 y(2,16) + y(2,17) + 6 y(2,18) + 2 y(2,19)
 <= 100
constr(30):  3 y(3,0) + 3 y(3,1) + 2 y(3,2) + 3 y(3,3) + 4.44000 y(3,4) + y(3,5) + 4 y(3,6) + 2 y(3,7) + 5 y(3,8) + 13.11000 y(3,9)
 + y(3,10) + 2.08000 y(3,11) + y(3,12) + 4 y(3,13) + 3 y(3,14) + 2 y(3,15) + 2 y(3,16) + y(3,17) + 6 y(3,18) + 2 y(3,19)
 <= 100
constr(31):  3 y(4,0) + 3 y(4,1) + 2 y(4,2) + 3 y(4,3) + 4.44000 y(4,4) + y(4,5) + 4 y(4,6) + 2 y(4,7) + 5 y(4,8) + 13.11000 y(4,9)
 + y(4,10) + 2.08000 y(4,11) + y(4,12) + 4 y(4,13) + 3 y(4,14) + 2 y(4,15) + 2 y(4,16) + y(4,17) + 6 y(4,18) + 2 y(4,19)
 <= 100
constr(32):  3 y(5,0) + 3 y(5,1) + 2 y(5,2) + 3 y(5,3) + 4.44000 y(5,4) + y(5,5) + 4 y(5,6) + 2 y(5,7) + 5 y(5,8) + 13.11000 y(5,9)
 + y(5,10) + 2.08000 y(5,11) + y(5,12) + 4 y(5,13) + 3 y(5,14) + 2 y(5,15) + 2 y(5,16) + y(5,17) + 6 y(5,18) + 2 y(5,19)
 <= 100
Bounds
 0 <= y(0,0) <= 1
 0 <= y(0,1) <= 1
 0 <= y(0,2) <= 1
 0 <= y(0,3) <= 1
 0 <= y(0,4) <= 1
 0 <= y(0,5) <= 1
 0 <= y(0,6) <= 1
 0 <= y(0,7) <= 1
 0 <= y(0,8) <= 1
 0 <= y(0,9) <= 1
 0 <= y(0,10) <= 1
 0 <= y(0,11) <= 1
 0 <= y(0,12) <= 1
 0 <= y(0,13) <= 1
 0 <= y(0,14) <= 1
 0 <= y(0,15) <= 1
 0 <= y(0,16) <= 1
 0 <= y(0,17) <= 1
 0 <= y(0,18) <= 1
 0 <= y(0,19) <= 1
 0 <= y(1,0) <= 1
 0 <= y(1,1) <= 1
 0 <= y(1,2) <= 1
 0 <= y(1,3) <= 1
 0 <= y(1,4) <= 1
 0 <= y(1,5) <= 1
 0 <= y(1,6) <= 1
 0 <= y(1,7) <= 1
 0 <= y(1,8) <= 1
 0 <= y(1,9) <= 1
 0 <= y(1,10) <= 1
 0 <= y(1,11) <= 1
 0 <= y(1,12) <= 1
 0 <= y(1,13) <= 1
 0 <= y(1,14) <= 1
 0 <= y(1,15) <= 1
 0 <= y(1,16) <= 1
 0 <= y(1,17) <= 1
 0 <= y(1,18) <= 1
 0 <= y(1,19) <= 1
 0 <= y(2,0) <= 1
 0 <= y(2,1) <= 1
 0 <= y(2,2) <= 1
 0 <= y(2,3) <= 1
 0 <= y(2,4) <= 1
 0 <= y(2,5) <= 1
 0 <= y(2,6) <= 1
 0 <= y(2,7) <= 1
 0 <= y(2,8) <= 1
 0 <= y(2,9) <= 1
 0 <= y(2,10) <= 1
 0 <= y(2,11) <= 1
 0 <= y(2,12) <= 1
 0 <= y(2,13) <= 1
 0 <= y(2,14) <= 1
 0 <= y(2,15) <= 1
 0 <= y(2,16) <= 1
 0 <= y(2,17) <= 1
 0 <= y(2,18) <= 1
 0 <= y(2,19) <= 1
 0 <= y(3,0) <= 1
 0 <= y(3,1) <= 1
 0 <= y(3,2) <= 1
 0 <= y(3,3) <= 1
 0 <= y(3,4) <= 1
 0 <= y(3,5) <= 1
 0 <= y(3,6) <= 1
 0 <= y(3,7) <= 1
 0 <= y(3,8) <= 1
 0 <= y(3,9) <= 1
 0 <= y(3,10) <= 1
 0 <= y(3,11) <= 1
 0 <= y(3,12) <= 1
 0 <= y(3,13) <= 1
 0 <= y(3,14) <= 1
 0 <= y(3,15) <= 1
 0 <= y(3,16) <= 1
 0 <= y(3,17) <= 1
 0 <= y(3,18) <= 1
 0 <= y(3,19) <= 1
 0 <= y(4,0) <= 1
 0 <= y(4,1) <= 1
 0 <= y(4,2) <= 1
 0 <= y(4,3) <= 1
 0 <= y(4,4) <= 1
 0 <= y(4,5) <= 1
 0 <= y(4,6) <= 1
 0 <= y(4,7) <= 1
 0 <= y(4,8) <= 1
 0 <= y(4,9) <= 1
 0 <= y(4,10) <= 1
 0 <= y(4,11) <= 1
 0 <= y(4,12) <= 1
 0 <= y(4,13) <= 1
 0 <= y(4,14) <= 1
 0 <= y(4,15) <= 1
 0 <= y(4,16) <= 1
 0 <= y(4,17) <= 1
 0 <= y(4,18) <= 1
 0 <= y(4,19) <= 1
 0 <= y(5,0) <= 1
 0 <= y(5,1) <= 1
 0 <= y(5,2) <= 1
 0 <= y(5,3) <= 1
 0 <= y(5,4) <= 1
 0 <= y(5,5) <= 1
 0 <= y(5,6) <= 1
 0 <= y(5,7) <= 1
 0 <= y(5,8) <= 1
 0 <= y(5,9) <= 1
 0 <= y(5,10) <= 1
 0 <= y(5,11) <= 1
 0 <= y(5,12) <= 1
 0 <= y(5,13) <= 1
 0 <= y(5,14) <= 1
 0 <= y(5,15) <= 1
 0 <= y(5,16) <= 1
 0 <= y(5,17) <= 1
 0 <= y(5,18) <= 1
 0 <= y(5,19) <= 1
Integers
y(0,0) y(0,1) y(0,2) y(0,3) y(0,4) y(0,5) y(0,6) y(0,7) y(0,8) y(0,9) 
y(0,10) y(0,11) y(0,12) y(0,13) y(0,14) y(0,15) y(0,16) y(0,17) y(0,18) y(0,19) 
y(1,0) y(1,1) y(1,2) y(1,3) y(1,4) y(1,5) y(1,6) y(1,7) y(1,8) y(1,9) 
y(1,10) y(1,11) y(1,12) y(1,13) y(1,14) y(1,15) y(1,16) y(1,17) y(1,18) y(1,19) 
y(2,0) y(2,1) y(2,2) y(2,3) y(2,4) y(2,5) y(2,6) y(2,7) y(2,8) y(2,9) 
y(2,10) y(2,11) y(2,12) y(2,13) y(2,14) y(2,15) y(2,16) y(2,17) y(2,18) y(2,19) 
y(3,0) y(3,1) y(3,2) y(3,3) y(3,4) y(3,5) y(3,6) y(3,7) y(3,8) y(3,9) 
y(3,10) y(3,11) y(3,12) y(3,13) y(3,14) y(3,15) y(3,16) y(3,17) y(3,18) y(3,19) 
y(4,0) y(4,1) y(4,2) y(4,3) y(4,4) y(4,5) y(4,6) y(4,7) y(4,8) y(4,9) 
y(4,10) y(4,11) y(4,12) y(4,13) y(4,14) y(4,15) y(4,16) y(4,17) y(4,18) y(4,19) 
y(5,0) y(5,1) y(5,2) y(5,3) y(5,4) y(5,5) y(5,6) y(5,7) y(5,8) y(5,9) 
y(5,10) y(5,11) y(5,12) y(5,13) y(5,14) y(5,15) y(5,16) y(5,17) y(5,18) y(5,19) 
End
